(set-logic QF_S)
(declare-fun var0 () String)
(declare-fun var1 () String)
(declare-fun var2 () String)
(declare-fun var3 () Int)
(declare-fun var4 () Int)
(declare-fun var5 () Int)
(declare-fun var6 () Bool)
(declare-fun var7 () Bool)
(declare-fun var8 () Bool)
(assert (not var8))
(assert (str.prefixof (str.replace var2 var0 var0) (str.substr "m2MRTGIx:}" var3 var4)))
(assert (str.in.re (str.substr var1 var5 var4) (re.+ re.allchar)))
(assert (<= (str.len var0) (str.indexof var1 var0 var3)))
(check-sat)